Route #1: 21 58 32 40 14 50 35 51 
Route #2: 19 25 44 15 56 11 
Route #3: 38 31 1 18 39 6 28 
Route #4: 33 55 53 10 16 61 13 26 
Route #5: 20 29 45 27 36 34 7 
Route #6: 17 22 37 57 62 52 12 
Route #7: 60 9 3 48 49 54 
Route #8: 30 2 5 24 59 8 
Route #9: 23 4 47 46 43 41 42 
cost 1952.01
execution_time 46.539
